6    8    2
 3  2 3 4 24 2 5 6 42 2 7 8 22
 3  2 3 4 24 2 5 6 42 2 7 8 22
 3  2 3 4 24 2 5 6 42 2 7 8 22
 3  2 3 4 24 2 5 6 42 2 7 8 22
 4  2 1 2 20 2 3 4 28 2 5 6 36 2 7 8 9
 4  2 1 2 20 2 3 4 28 2 5 6 36 2 7 8 18